50
11857

76 500
801 651
609 255
757 359
191 608
353 510
716 714
558 190
635 308
384 965
315 418
758 928
735 868
702 586
614 344
133 158
1000 465
720 977
712 896
352 222
239 43
390 57
147 338
649 429
28 63
709 387
827 75
228 871
467 941
829 151
14 306
458 63
71 990
791 453
303 501
94 43
518 886
326 679
744 554
19 500
894 566
427 896
905 935
261 958
276 402
356 240
380 124
226 806
383 853
873 512
